11111111111111111
10001010001000001
10111010101010101
10000000100010101
11111111111011111
10100000101000001
10101011101011111
10101000001000001
10101111111011101
10100010001000101
10101110111011111
10000010001010001
10101110101010101
10100000101000101
10111011101110101
10100010000000101
11111111111111111
